objective value:                                   -3
t_n_5                                               1 	(obj:-1)
t_n_890                                             1 	(obj:-1)
t_n_947                                             1 	(obj:-1)
